
Gurobi 11.0.3 (linux64) logging started Wed 20 Nov 2024 11:52:39 AM CST

Set parameter LogFile to value "/home/dlcole3/graph_abstraction/hierarchical_graphs/git_storage/CS1/HP_low_reserves/gurobi_logs/monolith/logfile16.log"
Set parameter NodefileStart to value 0.0005
Set parameter TimeLimit to value 7200

Gurobi 11.0.3 (linux64) logging started Wed 20 Nov 2024 11:53:22 AM CST

Set parameter LogFile to value "/home/dlcole3/graph_abstraction/hierarchical_graphs/git_storage/CS1/HP_low_reserves/gurobi_logs/monolith/logfile16.log"
Set parameter TimeLimit to value 7200
Gurobi Optimizer version 11.0.3 build v11.0.3rc0 (linux64 - "Ubuntu 18.04.3 LTS")

CPU model: Intel(R) Xeon(R) CPU E5-2698 v4 @ 2.20GHz, instruction set [SSE2|AVX|AVX2]
Thread count: 40 physical cores, 80 logical processors, using up to 20 threads

Optimize a model with 1105538 rows, 641709 columns and 4646693 nonzeros
Model fingerprint: 0xf95d8355
Variable types: 599982 continuous, 41727 integer (41727 binary)
Coefficient statistics:
  Matrix range     [5e-02, 2e+04]
  Objective range  [2e-01, 8e+04]
  Bounds range     [5e-02, 2e+05]
  RHS range        [4e-15, 7e+03]
Presolve removed 252428 rows and 123416 columns (presolve time = 5s) ...
Presolve removed 261621 rows and 124316 columns (presolve time = 10s) ...
Presolve removed 263932 rows and 124316 columns (presolve time = 15s) ...
Presolve removed 265344 rows and 125562 columns (presolve time = 20s) ...
Presolve removed 265446 rows and 125562 columns (presolve time = 25s) ...
Presolve removed 265470 rows and 125632 columns (presolve time = 30s) ...
Presolve removed 265470 rows and 125632 columns (presolve time = 35s) ...
Sparsify removed 119946 nonzeros (3%)
Presolve removed 265470 rows and 124854 columns
Presolve time: 37.75s
Presolved: 840068 rows, 516855 columns, 4503685 nonzeros
Variable types: 476742 continuous, 40113 integer (40042 binary)

Deterministic concurrent LP optimizer: primal simplex, dual simplex, and barrier
Showing barrier log only...

Root barrier log...

Elapsed ordering time = 5s
Elapsed ordering time = 11s
Elapsed ordering time = 37s
Elapsed ordering time = 42s
Elapsed ordering time = 45s
Elapsed ordering time = 50s
Elapsed ordering time = 55s
Elapsed ordering time = 64s
Elapsed ordering time = 67s
Elapsed ordering time = 70s
Elapsed ordering time = 75s
Elapsed ordering time = 80s
Elapsed ordering time = 88s
Elapsed ordering time = 91s
Elapsed ordering time = 95s
Elapsed ordering time = 100s
Elapsed ordering time = 105s
Ordering time: 111.89s

Barrier statistics:
 Dense cols : 342
 AA' NZ     : 4.849e+07
 Factor NZ  : 5.544e+08 (roughly 5.0 GB of memory)
 Factor Ops : 3.247e+12 (roughly 13 seconds per iteration)
 Threads    : 17

                  Objective                Residual
Iter       Primal          Dual         Primal    Dual     Compl     Time
   0  -2.08702872e+11 -1.80197315e+13  1.29e+04 1.52e+04  1.16e+08   175s
   1  -1.41506611e+11 -1.50824810e+13  9.48e+03 1.67e+05  8.22e+07   181s
   2  -9.80348768e+10 -1.10835165e+13  6.90e+03 7.36e+04  5.51e+07   186s
   3  -5.60057977e+10 -6.81022134e+12  4.16e+03 1.31e+04  3.06e+07   193s
   4  -1.14946387e+10 -2.58031367e+12  1.18e+03 1.02e+03  8.44e+06   199s
   5   6.54883713e+08 -1.08973176e+12  3.64e+02 3.53e+02  2.51e+06   206s
   6   4.77735704e+09 -5.15332043e+11  1.18e+02 1.53e+01  7.96e+05   213s
   7   6.05339843e+09 -2.41126029e+11  3.46e+01 1.72e+01  2.49e+05   221s
   8   5.25377468e+09 -7.67294855e+10  1.29e+01 6.08e+00  7.15e+04   229s
   9   2.76089176e+09 -2.87318760e+10  5.32e+00 1.32e+00  2.39e+04   239s
  10   1.30793293e+09 -1.77362094e+10  2.37e+00 7.17e-01  1.28e+04   250s
  11   5.24450395e+08 -5.99064073e+09  8.44e-01 1.83e-01  4.09e+03   260s
  12   2.55030808e+08 -2.69375924e+09  3.30e-01 7.62e-02  1.77e+03   269s
  13   1.07882691e+08 -9.84618252e+08  4.57e-02 2.62e-02  6.32e+02   278s
  14   9.03935958e+07 -4.54073446e+08  1.87e-02 1.27e-02  3.14e+02   287s
  15   8.47778038e+07 -3.04914617e+08  1.28e-02 9.03e-03  2.24e+02   297s
  16   7.80383318e+07 -1.66264456e+08  6.73e-03 5.57e-03  1.41e+02   306s
  17   7.48971228e+07 -8.95331980e+07  4.97e-03 3.68e-03  9.46e+01   316s
  18   7.11442001e+07 -3.64208127e+07  3.39e-03 2.35e-03  6.19e+01   327s
  19   6.66269116e+07  7.00584300e+06  2.04e-03 1.27e-03  3.43e+01   337s
  20   6.22600902e+07  3.88415049e+07  1.25e-03 4.30e-04  1.35e+01   348s
  21   5.93531402e+07  4.59303305e+07  7.52e-04 2.34e-04  7.73e+00   359s
  22   5.73861204e+07  4.99017095e+07  4.31e-04 1.25e-04  4.31e+00   369s
  23   5.63348621e+07  5.18144783e+07  2.72e-04 7.13e-05  2.60e+00   379s
  24   5.59773647e+07  5.25495539e+07  2.24e-04 5.14e-05  1.97e+00   388s
  25   5.55509051e+07  5.29893674e+07  1.64e-04 3.82e-05  1.48e+00   397s
  26   5.53644450e+07  5.32743146e+07  1.38e-04 2.96e-05  1.20e+00   406s
  27   5.52047238e+07  5.33711160e+07  1.17e-04 2.66e-05  1.06e+00   416s
  28   5.49916432e+07  5.36864937e+07  8.92e-05 1.73e-05  7.52e-01   426s
  29   5.47800701e+07  5.38036761e+07  6.21e-05 1.35e-05  5.62e-01   435s
  30   5.45514316e+07  5.39959681e+07  3.34e-05 7.71e-06  3.20e-01   446s
  31   5.44792186e+07  5.40735286e+07  2.49e-05 5.40e-06  2.34e-01   456s
  32   5.44248597e+07  5.41275227e+07  1.91e-05 3.83e-06  1.71e-01   467s
  33   5.43832799e+07  5.41840801e+07  1.78e-05 2.15e-06  1.15e-01   479s
  34   5.43348404e+07  5.42262418e+07  1.77e-05 8.49e-07  6.26e-02   490s
  35   5.43021083e+07  5.42389092e+07  1.30e-05 4.66e-07  3.64e-02   502s
  36   5.42860611e+07  5.42442310e+07  1.13e-05 2.94e-07  2.41e-02   515s
  37   5.42768111e+07  5.42474663e+07  9.39e-06 2.07e-07  1.69e-02   526s
  38   5.42681860e+07  5.42501225e+07  7.10e-06 1.26e-07  1.04e-02   537s
  39   5.42648750e+07  5.42518785e+07  5.71e-06 7.46e-08  7.49e-03   551s
  40   5.42638247e+07  5.42523707e+07  5.13e-06 6.55e-08  6.61e-03   563s
  41   5.42632736e+07  5.42527231e+07  4.83e-06 5.47e-08  6.09e-03   574s
  42   5.42608106e+07  5.42535424e+07  3.59e-06 3.11e-08  4.19e-03   586s
  43   5.42581049e+07  5.42539247e+07  2.08e-06 2.49e-08  2.41e-03   599s
  44   5.42561153e+07  5.42545343e+07  8.28e-07 7.58e-09  9.12e-04   613s
  45   5.42550376e+07  5.42547054e+07  1.43e-07 4.47e-09  1.91e-04   628s
  46   5.42548519e+07  5.42547904e+07  1.57e-07 7.02e-09  3.53e-05   641s
  47   5.42548401e+07  5.42548314e+07  6.59e-08 4.30e-09  4.99e-06   653s
  48   5.42548399e+07  5.42548383e+07  2.64e-07 1.07e-08  8.69e-07   663s
  49   5.42548398e+07  5.42548384e+07  8.48e-07 2.05e-08  7.95e-07   673s

Barrier solved model in 49 iterations and 673.39 seconds (683.57 work units)
Optimal objective 5.42548398e+07


Root crossover log...

  313859 DPushes remaining with DInf 6.0569572e-02               675s
  154990 DPushes remaining with DInf 1.5569973e+01               683s
  123467 DPushes remaining with DInf 6.3264161e+00               690s
  104561 DPushes remaining with DInf 6.3264148e+00               695s
   88795 DPushes remaining with DInf 2.7106462e-04               699s
   76772 DPushes remaining with DInf 2.4097266e-04               703s
   67021 DPushes remaining with DInf 2.4097250e-04               707s
   58427 DPushes remaining with DInf 2.4097263e-04               711s
   43952 DPushes remaining with DInf 2.4097269e-04               717s
   37969 DPushes remaining with DInf 2.4097274e-04               721s
   28269 DPushes remaining with DInf 2.4097263e-04               727s
   20614 DPushes remaining with DInf 2.3989303e-04               733s
   17739 DPushes remaining with DInf 2.3989300e-04               735s
   11970 DPushes remaining with DInf 2.3989304e-04               741s
    9417 DPushes remaining with DInf 2.3989296e-04               746s
    7234 DPushes remaining with DInf 2.3989294e-04               751s
    4465 DPushes remaining with DInf 2.3989309e-04               756s
    1960 DPushes remaining with DInf 0.0000000e+00               760s
       0 DPushes remaining with DInf 0.0000000e+00               765s

   36360 PPushes remaining with PInf 3.5807084e-03               765s
       0 PPushes remaining with PInf 0.0000000e+00               771s

  Push phase complete: Pinf 0.0000000e+00, Dinf 3.4663624e+00    771s


Root simplex log...

Iteration    Objective       Primal Inf.    Dual Inf.      Time
  202696    5.4254839e+07   0.000000e+00   3.466362e+00    772s
  202700    5.4254839e+07   0.000000e+00   0.000000e+00    772s
  202700    5.4254839e+07   0.000000e+00   0.000000e+00    774s
Waiting for other threads to finish...         841s
Waiting for other threads to finish...         907s
Waiting for other threads to finish...         974s
Waiting for other threads to finish...        1040s
Waiting for other threads to finish...        1107s
Waiting for other threads to finish...        1173s
Waiting for other threads to finish...        1240s
Waiting for other threads to finish...        1307s
Waiting for other threads to finish...        1373s
Concurrent spin time: 607.26s (can be avoided by choosing Method=3)

Solved with barrier

Root relaxation: objective 5.425484e+07, 202700 iterations, 1338.87 seconds (686.53 work units)
Total elapsed time = 1389.41s (DegenMoves)
Total elapsed time = 1394.05s (DegenMoves)

    Nodes    |    Current Node    |     Objective Bounds      |     Work
 Expl Unexpl |  Obj  Depth IntInf | Incumbent    BestBd   Gap | It/Node Time

     0     0 5.4255e+07    0  753          - 5.4255e+07      -     - 1424s
H    0     0                    5.610705e+07 5.4255e+07  3.30%     - 1542s
     0     0 5.4270e+07    0  701 5.6107e+07 5.4270e+07  3.28%     - 1903s
H    0     0                    5.496335e+07 5.4270e+07  1.26%     - 2047s
     0     0 5.4277e+07    0  700 5.4963e+07 5.4277e+07  1.25%     - 2100s
     0     0 5.4279e+07    0  640 5.4963e+07 5.4279e+07  1.25%     - 2130s
     0     0 5.4279e+07    0  641 5.4963e+07 5.4279e+07  1.24%     - 2146s
     0     0 5.4280e+07    0  644 5.4963e+07 5.4280e+07  1.24%     - 2152s
     0     0 5.4280e+07    0  643 5.4963e+07 5.4280e+07  1.24%     - 2155s
     0     0 5.4281e+07    0  662 5.4963e+07 5.4281e+07  1.24%     - 2191s
     0     0 5.4281e+07    0  734 5.4963e+07 5.4281e+07  1.24%     - 2292s
     0     0 5.4281e+07    0  733 5.4963e+07 5.4281e+07  1.24%     - 2295s
     0     0 5.4281e+07    0  652 5.4963e+07 5.4281e+07  1.24%     - 2350s
H    0     0                    5.478365e+07 5.4281e+07  0.92%     - 2424s

Cutting planes:
  Gomory: 1
  Implied bound: 204
  MIR: 75
  Flow cover: 845
  Relax-and-lift: 3

Explored 1 nodes (229310 simplex iterations) in 2425.35 seconds (1297.61 work units)
Thread count was 20 (of 80 available processors)

Solution count 4: 5.47836e+07 5.47836e+07 5.49633e+07 5.6107e+07 

Optimal solution found (tolerance 1.00e-02)
Best objective 5.478364916678e+07, best bound 5.428090304795e+07, gap 0.9177%

User-callback calls 751174, time in user-callback 2.78 sec
